mixintcount/benchmarks/random_v2l/4_4_3548.in
16 6
#	x1	x2	x3	x4;		0 = Real; 1 = Integer
	1	1	1	1
1	-3	-7	-9	7	-383
1	10	4	3	-10	2100
1	8	-8	-7	-5	-792
1	5	-2	-1	-3	212
1	-2	4	2	9	-1015
1	9	-7	1	5	472
1	9	-9	0	10	1302
1	5	7	-2	-5	-208
1	1	0	0	0	3548
1	-1	0	0	0	3548
1	0	1	0	0	3548
1	0	-1	0	0	3548
1	0	0	1	0	3548
1	0	0	-1	0	3548
1	0	0	0	1	3548
1	0	0	0	-1	3548
